RAW/XQ/fspd-mid/X-n125-k30.vrp_seed-8.out
43373	150.833	164.94
