RAW/XQ/fspd-mid/X-n125-k30.vrp_seed-8.sol
Route #1: 26
Route #2: 38 102 52 44 123
Route #3: 83 91 54 101
Route #4: 93 111
Route #5: 31 97 82 56
Route #6: 94 47 22 40 118 25 109 117 62
Route #7: 14 3 60 86 96
Route #8: 113 39 120 57
Route #9: 13 42 81 43 106
Route #10: 5 37 72 67 64
Route #11: 45 119 29 20 95
Route #12: 49 115 88 89 105 51 23 24
Route #13: 17 15 78 28 59 70 6 34 2 124 50 116 66
Route #14: 85 30 55 63 46 1 27 108
Route #15: 69 53 33 32
Route #16: 10 18
Route #17: 58 65 104 71 98 48
Route #18: 75 35 100 112
Route #19: 84 121 21 73
Route #20: 99 12 103 8
Route #21: 77 7 41 107 4 80 68 79 36
Route #22: 110 122 61 76
Route #23: 90 16 87 114 11 19 9 92 74
Cost 43373.000000